321supercell
1.1068
     8.1291300000000000    0.0000000000000000    0.0000000000000000
    -2.7097099999999998    4.6933559999999996    0.0000000000000000
     0.0000000000000000    0.0000000000000000    4.4020339999999996
Be O Zn
   6  12  6 
Direct
  0.8888890000000000  0.6666665000000001  0.0000420000000000
  0.2222223333333333  0.6666665000000001  0.0000420000000000
  0.1111110000000000  0.8333334999999999  0.5000420000000000
  0.4444443333333333  0.3333335000000000  0.5000420000000000
  0.7777776666666667  0.3333335000000000  0.5000420000000000
  0.5555556666666667  0.6666665000000001  0.0000420000000000
  0.7777776666666667  0.3333335000000000  0.1222580000000000
  0.8888889999999999  0.1666665000000000  0.6222579999999999
  0.4444443333333333  0.8333334999999999  0.1222580000000000
  0.4444443333333333  0.3333335000000000  0.1222580000000000
  0.8888890000000000  0.6666665000000001  0.6222579999999999
  0.5555556666666667  0.1666665000000000  0.6222579999999999
  0.1111110000000000  0.8333334999999999  0.1222580000000000
  0.2222223333333333  0.6666665000000001  0.6222579999999999
  0.1111110000000000  0.3333335000000000  0.1222580000000000
  0.2222223333333333  0.1666665000000000  0.6222579999999999
  0.5555556666666667  0.6666665000000001  0.6222579999999999
  0.7777776666666666  0.8333334999999999  0.1222580000000000
  0.2222223333333333  0.1666665000000000  0.0000420000000000
  0.1111110000000000  0.3333335000000000  0.5000420000000000
  0.7777776666666666  0.8333334999999999  0.5000420000000000
  0.5555556666666667  0.1666665000000000  0.0000420000000000
  0.8888889999999999  0.1666665000000000  0.0000420000000000
  0.4444443333333333  0.8333334999999999  0.5000420000000000
